NAME: random-82-30990
TYPE: TSP
COMMENT: size=82 seed=30990
DIMENSION: 166
EDGE_WEIGHT_TYPE: EUC_2D
NODE_COORD_SECTION
+0 930 338
-0 930 338
+1 730 385
-1 881 634
+2 773 908
-2 652 238
+3 183 643
-3 698 465
+4 424 724
-4 946 943
+5 731 209
-5 866 832
+6 766 807
-6 707 412
+7 363 987
-7 160 600
+8 829 240
-8 183 33
+9 775 183
-9 546 103
+10 545 777
-10 505 778
+11 220 506
-11 342 291
+12 263 402
-12 799 282
+13 824 767
-13 269 580
+14 941 794
-14 828 198
+15 135 495
-15 157 518
+16 318 194
-16 421 203
+17 683 275
-17 168 302
+18 508 477
-18 198 589
+19 850 496
-19 197 714
+20 712 465
-20 33 245
+21 648 727
-21 645 400
+22 959 228
-22 898 446
+23 531 998
-23 734 588
+24 650 164
-24 758 729
+25 793 530
-25 990 398
+26 969 815
-26 928 502
+27 446 751
-27 828 407
+28 208 109
-28 142 202
+29 283 339
-29 564 353
+30 507 107
-30 536 734
+31 746 261
-31 815 902
+32 505 900
-32 491 421
+33 454 722
-33 798 85
+34 608 796
-34 478 2
+35 411 314
-35 222 53
+36 456 551
-36 682 828
+37 639 7
-37 420 772
+38 515 880
-38 689 623
+39 988 646
-39 142 851
+40 810 632
-40 462 494
+41 907 586
-41 401 113
+42 126 55
-42 685 498
+43 538 798
-43 866 413
+44 726 421
-44 727 7
+45 493 478
-45 637 426
+46 12 660
-46 220 101
+47 873 134
-47 772 7
+48 568 458
-48 69 32
+49 726 514
-49 952 101
+50 463 683
-50 443 721
+51 220 495
-51 952 196
+52 675 20
-52 286 422
+53 258 642
-53 494 371
+54 262 165
-54 95 373
+55 324 277
-55 424 300
+56 454 266
-56 183 698
+57 392 308
-57 329 493
+58 228 649
-58 918 90
+59 617 16
-59 822 307
+60 101 781
-60 714 234
+61 918 542
-61 826 200
+62 424 990
-62 914 151
+63 918 650
-63 13 95
+64 920 460
-64 123 620
+65 867 643
-65 200 349
+66 338 800
-66 791 201
+67 366 847
-67 801 242
+68 593 166
-68 210 136
+69 995 683
-69 976 132
+70 123 430
-70 692 940
+71 699 449
-71 4 664
+72 845 803
-72 420 174
+73 918 227
-73 897 527
+74 317 937
-74 807 277
+75 798 309
-75 744 377
+76 397 474
-76 302 84
+77 351 587
-77 546 982
+78 675 253
-78 468 445
+79 926 420
-79 340 134
+80 469 998
-80 723 19
+81 929 167
-81 707 455
+82 105 23
-82 523 239
PRECEDENCE_SECTION
+0 -0
+1 -1
+2 -2
+3 -3
+4 -4
+5 -5
+6 -6
+7 -7
+8 -8
+9 -9
+10 -10
+11 -11
+12 -12
+13 -13
+14 -14
+15 -15
+16 -16
+17 -17
+18 -18
+19 -19
+20 -20
+21 -21
+22 -22
+23 -23
+24 -24
+25 -25
+26 -26
+27 -27
+28 -28
+29 -29
+30 -30
+31 -31
+32 -32
+33 -33
+34 -34
+35 -35
+36 -36
+37 -37
+38 -38
+39 -39
+40 -40
+41 -41
+42 -42
+43 -43
+44 -44
+45 -45
+46 -46
+47 -47
+48 -48
+49 -49
+50 -50
+51 -51
+52 -52
+53 -53
+54 -54
+55 -55
+56 -56
+57 -57
+58 -58
+59 -59
+60 -60
+61 -61
+62 -62
+63 -63
+64 -64
+65 -65
+66 -66
+67 -67
+68 -68
+69 -69
+70 -70
+71 -71
+72 -72
+73 -73
+74 -74
+75 -75
+76 -76
+77 -77
+78 -78
+79 -79
+80 -80
+81 -81
+82 -82
EOF
